c cksystemsgroup.github.io/unicorn
c CNF contains a total of 192 clauses.
c CNF contains a total of 128 variables.
c CNF clauses cover 1 bad states.
c Variable name mapping (65 names):
c   1: input[bit=0]
c   2: input[bit=1]
c   4: input[bit=2]
c   6: input[bit=3]
c   8: input[bit=4]
c   10: input[bit=5]
c   12: input[bit=6]
c   14: input[bit=7]
c   16: input[bit=8]
c   18: input[bit=9]
c   20: input[bit=10]
c   22: input[bit=11]
c   24: input[bit=12]
c   26: input[bit=13]
c   28: input[bit=14]
c   30: input[bit=15]
c   32: input[bit=16]
c   34: input[bit=17]
c   36: input[bit=18]
c   38: input[bit=19]
c   40: input[bit=20]
c   42: input[bit=21]
c   44: input[bit=22]
c   46: input[bit=23]
c   48: input[bit=24]
c   50: input[bit=25]
c   52: input[bit=26]
c   54: input[bit=27]
c   56: input[bit=28]
c   58: input[bit=29]
c   60: input[bit=30]
c   62: input[bit=31]
c   64: input[bit=32]
c   66: input[bit=33]
c   68: input[bit=34]
c   70: input[bit=35]
c   72: input[bit=36]
c   74: input[bit=37]
c   76: input[bit=38]
c   78: input[bit=39]
c   80: input[bit=40]
c   82: input[bit=41]
c   84: input[bit=42]
c   86: input[bit=43]
c   88: input[bit=44]
c   90: input[bit=45]
c   92: input[bit=46]
c   94: input[bit=47]
c   96: input[bit=48]
c   98: input[bit=49]
c   100: input[bit=50]
c   102: input[bit=51]
c   104: input[bit=52]
c   106: input[bit=53]
c   108: input[bit=54]
c   110: input[bit=55]
c   112: input[bit=56]
c   114: input[bit=57]
c   116: input[bit=58]
c   118: input[bit=59]
c   120: input[bit=60]
c   122: input[bit=61]
c   124: input[bit=62]
c   126: input[bit=63]
c   128: ?
p cnf 128 192
-1 -2 3 0
1 -3 0
2 -3 0
-3 -4 5 0
3 -5 0
4 -5 0
-5 -6 7 0
5 -7 0
6 -7 0
-7 -8 9 0
7 -9 0
8 -9 0
-9 -10 11 0
9 -11 0
10 -11 0
-11 -12 13 0
11 -13 0
12 -13 0
-13 -14 15 0
13 -15 0
14 -15 0
-15 -16 17 0
15 -17 0
16 -17 0
-17 -18 19 0
17 -19 0
18 -19 0
-19 -20 21 0
19 -21 0
20 -21 0
-21 -22 23 0
21 -23 0
22 -23 0
-23 -24 25 0
23 -25 0
24 -25 0
-25 -26 27 0
25 -27 0
26 -27 0
-27 -28 29 0
27 -29 0
28 -29 0
-29 -30 31 0
29 -31 0
30 -31 0
-31 -32 33 0
31 -33 0
32 -33 0
-33 -34 35 0
33 -35 0
34 -35 0
-35 -36 37 0
35 -37 0
36 -37 0
-37 -38 39 0
37 -39 0
38 -39 0
-39 -40 41 0
39 -41 0
40 -41 0
-41 -42 43 0
41 -43 0
42 -43 0
-43 -44 45 0
43 -45 0
44 -45 0
-45 -46 47 0
45 -47 0
46 -47 0
-47 -48 49 0
47 -49 0
48 -49 0
-49 -50 51 0
49 -51 0
50 -51 0
-51 -52 53 0
51 -53 0
52 -53 0
-53 -54 55 0
53 -55 0
54 -55 0
-55 -56 57 0
55 -57 0
56 -57 0
-57 -58 59 0
57 -59 0
58 -59 0
-59 -60 61 0
59 -61 0
60 -61 0
-61 -62 63 0
61 -63 0
62 -63 0
-63 -64 65 0
63 -65 0
64 -65 0
-65 -66 67 0
65 -67 0
66 -67 0
-67 -68 69 0
67 -69 0
68 -69 0
-69 -70 71 0
69 -71 0
70 -71 0
-71 -72 73 0
71 -73 0
72 -73 0
-73 -74 75 0
73 -75 0
74 -75 0
-75 -76 77 0
75 -77 0
76 -77 0
-77 -78 79 0
77 -79 0
78 -79 0
-79 -80 81 0
79 -81 0
80 -81 0
-81 -82 83 0
81 -83 0
82 -83 0
-83 -84 85 0
83 -85 0
84 -85 0
-85 -86 87 0
85 -87 0
86 -87 0
-87 -88 89 0
87 -89 0
88 -89 0
-89 -90 91 0
89 -91 0
90 -91 0
-91 -92 93 0
91 -93 0
92 -93 0
-93 -94 95 0
93 -95 0
94 -95 0
-95 -96 97 0
95 -97 0
96 -97 0
-97 -98 99 0
97 -99 0
98 -99 0
-99 -100 101 0
99 -101 0
100 -101 0
-101 -102 103 0
101 -103 0
102 -103 0
-103 -104 105 0
103 -105 0
104 -105 0
-105 -106 107 0
105 -107 0
106 -107 0
-107 -108 109 0
107 -109 0
108 -109 0
-109 -110 111 0
109 -111 0
110 -111 0
-111 -112 113 0
111 -113 0
112 -113 0
-113 -114 115 0
113 -115 0
114 -115 0
-115 -116 117 0
115 -117 0
116 -117 0
-117 -118 119 0
117 -119 0
118 -119 0
-119 -120 121 0
119 -121 0
120 -121 0
-121 -122 123 0
121 -123 0
122 -123 0
-123 -124 125 0
123 -125 0
124 -125 0
-126 -127 0
126 127 0
-125 -127 128 0
125 -128 0
127 -128 0
128 0
